language ESSENCE' 1.0
$ minion Nodes: 1
$ minion TotalTime: 0.000526
$ Savile Row TotalTime: 0.248
letting pain_tuple1_tuple2_tuple2 be [6, 7;int(1..2)]
letting pain_tuple1_tuple1_SetExplicit_SetExplicit be [[[2;int(1..1)];int(1..1)], 
[[1;int(1..1)];int(1..1)];int(1..2)]
letting pain_tuple2 be [8, 9;int(1..2)]
letting pain_tuple1_tuple2_tuple1 be [5, 4;int(1..2)]
